jobs  (incl. supersource/sink ):	52
RESOURCES
- renewable                 : 2 R
- nonrenewable              : 4 N
- doubly constrained        : 0 D
************************************************************************
PRECEDENCE RELATIONS:
jobnr.    #modes  #successors   successors
1	1	10		2 3 4 5 6 7 9 14 15 16 
2	6	8		29 26 22 20 19 17 13 10 
3	6	5		22 21 20 10 8 
4	6	5		28 22 21 12 10 
5	6	8		29 28 27 25 24 23 19 18 
6	6	6		40 28 27 23 18 17 
7	6	6		28 27 26 21 19 18 
8	6	5		32 29 28 23 11 
9	6	5		31 27 25 21 20 
10	6	7		40 37 35 30 27 25 18 
11	6	8		40 39 34 33 31 30 25 24 
12	6	8		39 37 35 34 32 31 29 25 
13	6	6		39 38 34 28 27 21 
14	6	6		51 39 33 30 28 23 
15	6	7		39 37 34 33 32 27 25 
16	6	4		39 33 24 23 
17	6	4		39 30 25 24 
18	6	8		51 49 39 38 34 33 32 31 
19	6	7		48 40 37 35 33 32 30 
20	6	6		50 39 37 34 33 28 
21	6	7		49 48 40 35 33 32 30 
22	6	6		45 39 38 37 34 31 
23	6	7		48 47 41 38 37 36 34 
24	6	7		51 48 46 43 41 37 35 
25	6	7		51 49 46 43 41 38 36 
26	6	7		49 48 47 46 43 41 35 
27	6	9		50 49 48 47 46 45 44 43 41 
28	6	5		48 46 43 41 35 
29	6	4		46 44 41 33 
30	6	6		47 46 45 44 43 41 
31	6	6		48 47 46 44 43 42 
32	6	5		50 47 45 43 42 
33	6	4		47 45 43 42 
34	6	3		46 43 42 
35	6	1		36 
36	6	2		45 44 
37	6	2		49 42 
38	6	2		50 44 
39	6	1		41 
40	6	1		41 
41	6	1		42 
42	6	1		52 
43	6	1		52 
44	6	1		52 
45	6	1		52 
46	6	1		52 
47	6	1		52 
48	6	1		52 
49	6	1		52 
50	6	1		52 
51	6	1		52 
52	1	0		
************************************************************************
REQUESTS/DURATIONS
jobnr.	mode	dur	R1	R2	N1	N2	N3	N4	
------------------------------------------------------------------------
1	1	0	0	0	0	0	0	0	
2	1	1	14	5	4	6	19	16	
	2	2	13	5	4	4	16	14	
	3	3	12	4	4	4	12	14	
	4	4	12	3	3	2	12	11	
	5	6	10	1	3	1	10	9	
	6	7	10	1	3	1	8	7	
3	1	5	6	15	14	16	16	13	
	2	10	5	15	14	12	14	12	
	3	13	5	15	12	11	13	9	
	4	14	5	15	11	8	12	9	
	5	15	4	15	11	8	11	6	
	6	18	4	15	10	5	10	4	
4	1	1	7	11	17	9	18	15	
	2	3	6	9	14	7	14	15	
	3	5	5	8	11	7	14	14	
	4	6	4	7	9	6	12	11	
	5	14	3	7	5	4	11	10	
	6	16	2	6	2	2	8	8	
5	1	3	17	12	3	15	11	14	
	2	4	16	12	3	12	10	14	
	3	6	16	12	3	12	7	14	
	4	10	15	11	3	11	6	14	
	5	18	14	10	2	9	4	14	
	6	19	14	10	2	8	2	14	
6	1	1	16	10	19	5	9	5	
	2	6	16	8	13	4	8	3	
	3	7	14	7	11	4	7	3	
	4	8	14	7	7	3	7	2	
	5	11	12	5	4	3	6	1	
	6	18	12	5	1	3	6	1	
7	1	6	6	14	3	16	10	16	
	2	7	5	11	3	15	9	15	
	3	13	4	11	3	15	8	10	
	4	14	4	8	3	14	8	7	
	5	17	3	8	3	13	7	3	
	6	20	2	7	3	12	6	3	
8	1	6	13	10	3	13	13	5	
	2	7	11	10	3	13	13	4	
	3	8	11	8	3	13	12	4	
	4	11	8	5	3	13	10	4	
	5	14	5	2	2	13	9	4	
	6	19	4	1	2	13	7	4	
9	1	3	14	14	12	3	15	18	
	2	6	13	14	10	3	14	15	
	3	9	11	14	10	3	12	10	
	4	10	9	13	9	2	8	10	
	5	11	5	13	7	2	7	7	
	6	17	4	13	7	2	3	3	
10	1	3	13	20	18	5	17	11	
	2	4	12	19	15	5	17	11	
	3	9	10	18	11	4	16	8	
	4	11	10	18	8	4	16	6	
	5	13	8	17	8	4	16	6	
	6	17	7	17	3	3	15	3	
11	1	2	14	10	14	19	12	16	
	2	4	14	9	12	15	10	14	
	3	6	12	9	11	13	10	11	
	4	7	9	8	9	8	8	10	
	5	9	5	7	9	8	7	9	
	6	13	2	7	8	5	7	6	
12	1	5	6	18	11	12	15	12	
	2	9	5	15	10	11	12	10	
	3	14	5	15	9	11	12	9	
	4	15	4	14	9	10	9	6	
	5	17	4	12	7	10	8	4	
	6	18	4	11	6	9	4	4	
13	1	2	11	14	13	17	7	16	
	2	6	10	14	12	16	6	16	
	3	7	10	14	11	16	6	16	
	4	11	10	14	10	14	6	15	
	5	14	10	14	9	13	6	15	
	6	15	10	14	9	12	6	15	
14	1	2	20	15	15	11	6	6	
	2	3	20	14	13	11	6	5	
	3	5	20	13	12	9	5	4	
	4	10	20	13	9	8	5	4	
	5	16	20	13	7	7	3	2	
	6	17	20	12	6	7	3	2	
15	1	1	7	3	18	15	10	9	
	2	2	7	3	15	12	10	8	
	3	6	7	3	13	11	10	5	
	4	7	7	3	13	8	9	4	
	5	14	6	2	11	5	9	3	
	6	15	6	2	9	3	8	1	
16	1	1	17	9	15	20	13	14	
	2	2	17	7	13	17	11	11	
	3	4	17	7	9	15	9	8	
	4	7	17	6	9	12	8	8	
	5	19	17	5	6	11	7	4	
	6	20	17	5	3	9	6	2	
17	1	1	19	8	14	12	20	18	
	2	9	18	7	13	12	19	18	
	3	10	16	7	13	12	19	18	
	4	16	15	6	11	12	19	18	
	5	17	14	6	10	12	19	18	
	6	20	14	6	9	12	19	18	
18	1	10	17	17	10	10	17	15	
	2	14	17	14	10	10	16	14	
	3	15	16	11	10	8	15	12	
	4	18	15	8	10	6	13	11	
	5	19	13	6	10	4	11	10	
	6	20	12	4	10	3	9	7	
19	1	3	16	11	12	20	16	14	
	2	4	13	11	11	18	13	12	
	3	7	11	9	10	18	11	12	
	4	9	9	8	8	18	8	10	
	5	13	7	8	7	16	5	10	
	6	14	5	6	7	16	1	9	
20	1	3	13	17	15	7	15	16	
	2	4	12	17	13	6	13	15	
	3	5	10	17	12	5	12	15	
	4	8	8	16	11	5	11	15	
	5	9	7	16	8	5	8	15	
	6	17	5	16	7	4	7	15	
21	1	7	12	18	18	18	18	12	
	2	11	11	17	18	17	18	10	
	3	12	11	17	16	15	16	8	
	4	14	9	17	16	14	16	7	
	5	16	9	16	15	14	13	7	
	6	19	8	16	13	13	13	4	
22	1	5	14	11	17	15	20	11	
	2	8	12	10	17	13	19	10	
	3	12	11	10	14	11	18	10	
	4	15	11	8	14	8	16	9	
	5	17	10	8	13	6	15	9	
	6	18	8	6	10	3	15	9	
23	1	12	12	18	17	20	19	14	
	2	15	10	18	16	18	17	12	
	3	16	9	16	16	18	13	11	
	4	17	7	15	16	18	12	9	
	5	18	7	13	15	17	10	8	
	6	19	5	12	15	16	8	6	
24	1	1	10	16	17	12	20	14	
	2	2	9	13	14	12	17	12	
	3	3	9	12	13	11	12	9	
	4	8	8	8	12	9	10	6	
	5	16	8	8	10	9	8	5	
	6	20	7	4	9	7	6	3	
25	1	5	5	6	11	8	13	5	
	2	6	5	6	11	8	13	4	
	3	8	4	5	10	7	10	5	
	4	11	4	5	10	7	9	5	
	5	15	3	5	9	6	7	5	
	6	20	2	4	9	5	7	5	
26	1	5	16	9	3	14	16	6	
	2	8	14	8	3	14	12	5	
	3	10	10	6	2	13	11	5	
	4	12	8	6	2	13	8	4	
	5	15	5	4	2	13	6	2	
	6	18	3	4	1	12	6	2	
27	1	1	2	19	9	15	16	19	
	2	4	2	18	8	12	16	18	
	3	6	2	18	7	11	16	16	
	4	7	2	17	4	7	15	13	
	5	9	1	16	2	5	15	11	
	6	20	1	16	2	3	15	11	
28	1	2	13	13	12	4	13	15	
	2	8	9	13	12	3	11	14	
	3	17	8	13	12	3	10	13	
	4	18	6	13	12	3	9	12	
	5	19	6	13	11	3	7	11	
	6	20	3	13	11	3	7	11	
29	1	1	20	2	6	3	11	17	
	2	3	17	1	6	3	10	17	
	3	4	14	1	4	2	9	15	
	4	9	13	1	3	2	9	15	
	5	12	10	1	2	2	8	14	
	6	17	7	1	1	1	7	13	
30	1	2	5	8	7	17	16	7	
	2	5	5	7	6	16	14	7	
	3	6	5	7	6	16	14	6	
	4	8	5	5	5	15	14	6	
	5	9	4	3	5	14	12	6	
	6	17	4	1	5	12	12	6	
31	1	9	19	13	17	20	16	1	
	2	11	17	12	16	20	14	1	
	3	12	17	10	16	20	11	1	
	4	14	16	10	16	20	10	1	
	5	19	15	8	16	20	8	1	
	6	20	15	7	16	20	4	1	
32	1	1	12	14	16	11	19	11	
	2	2	10	11	16	10	19	11	
	3	3	7	9	15	10	19	11	
	4	13	6	8	14	10	19	10	
	5	18	3	6	13	10	19	9	
	6	20	1	3	12	10	19	9	
33	1	4	17	17	14	12	12	12	
	2	7	15	14	12	11	12	11	
	3	8	13	12	9	10	12	11	
	4	10	11	11	6	9	11	11	
	5	13	11	10	6	7	11	10	
	6	14	9	8	3	6	11	9	
34	1	1	2	15	14	8	11	15	
	2	2	2	14	12	8	11	14	
	3	3	2	14	12	8	10	13	
	4	6	2	14	12	7	8	11	
	5	10	2	14	10	7	7	9	
	6	11	2	14	10	6	5	7	
35	1	7	12	6	15	12	16	18	
	2	8	12	6	15	11	15	17	
	3	9	12	6	15	10	14	16	
	4	11	12	6	14	8	13	16	
	5	12	11	6	13	8	12	16	
	6	16	11	6	13	6	12	15	
36	1	1	20	14	18	12	10	15	
	2	5	20	13	16	11	9	13	
	3	9	20	13	16	8	9	12	
	4	10	20	12	14	6	8	10	
	5	11	20	12	13	6	7	9	
	6	13	20	11	13	3	5	6	
37	1	2	17	8	11	11	17	15	
	2	5	17	6	10	10	16	14	
	3	7	16	6	9	10	16	13	
	4	13	16	6	8	9	15	13	
	5	17	15	4	6	8	15	10	
	6	18	15	4	6	7	15	9	
38	1	1	18	13	17	5	20	16	
	2	2	15	10	12	4	19	16	
	3	7	15	7	11	4	19	16	
	4	12	12	7	8	2	18	15	
	5	13	9	4	7	1	18	15	
	6	17	7	2	2	1	17	14	
39	1	6	13	11	14	3	12	5	
	2	7	9	10	14	3	11	4	
	3	17	9	10	12	2	11	4	
	4	18	6	9	11	2	11	4	
	5	19	5	9	10	1	11	3	
	6	20	2	9	9	1	11	3	
40	1	2	11	16	16	13	13	19	
	2	9	9	16	15	12	11	17	
	3	11	8	14	14	11	9	15	
	4	12	7	13	14	9	8	11	
	5	13	5	13	14	8	7	9	
	6	14	4	12	13	7	4	7	
41	1	3	17	11	18	18	7	8	
	2	13	17	9	17	16	5	7	
	3	14	15	6	16	14	5	7	
	4	15	14	6	16	13	4	5	
	5	16	13	4	14	12	2	5	
	6	17	13	2	14	9	2	3	
42	1	2	19	9	13	12	15	6	
	2	6	14	8	9	9	14	5	
	3	10	13	8	9	8	14	5	
	4	12	10	8	7	6	14	4	
	5	19	7	7	3	4	14	2	
	6	20	5	6	2	3	14	2	
43	1	2	8	17	12	3	15	13	
	2	6	8	17	12	2	13	10	
	3	8	8	16	12	2	11	10	
	4	11	7	16	12	2	11	8	
	5	14	7	15	12	1	9	7	
	6	19	7	14	12	1	9	6	
44	1	7	11	15	15	6	16	3	
	2	9	10	15	14	5	15	3	
	3	12	10	15	13	5	14	2	
	4	13	10	14	13	5	13	2	
	5	16	10	13	10	4	13	2	
	6	19	10	13	9	4	12	1	
45	1	6	7	19	9	9	14	10	
	2	12	6	17	8	9	12	10	
	3	13	6	16	7	7	12	10	
	4	14	6	14	5	6	10	10	
	5	15	5	12	5	4	8	9	
	6	16	5	9	4	3	7	9	
46	1	2	9	5	18	10	19	9	
	2	3	8	5	16	10	19	9	
	3	5	7	5	16	8	19	9	
	4	8	6	5	15	7	19	8	
	5	11	5	4	13	5	19	8	
	6	17	5	4	11	3	19	7	
47	1	3	17	10	14	15	11	9	
	2	7	14	9	13	11	11	9	
	3	15	10	8	13	10	9	9	
	4	16	8	8	11	9	8	9	
	5	17	4	7	11	6	7	9	
	6	18	3	6	9	3	7	9	
48	1	3	16	12	18	18	8	18	
	2	8	16	11	13	15	7	18	
	3	12	14	10	12	14	6	18	
	4	13	14	9	11	10	4	18	
	5	15	12	9	7	9	3	18	
	6	18	11	8	6	6	3	18	
49	1	3	18	6	11	19	20	12	
	2	4	15	6	10	17	16	11	
	3	5	11	6	10	16	14	10	
	4	6	9	5	10	12	9	8	
	5	11	6	5	10	12	7	7	
	6	13	4	5	10	10	4	5	
50	1	5	11	17	6	16	13	19	
	2	6	10	14	5	16	13	17	
	3	7	10	12	5	15	13	16	
	4	12	10	7	4	14	12	13	
	5	13	9	3	4	14	11	12	
	6	17	9	2	3	13	11	10	
51	1	7	9	10	15	16	9	10	
	2	12	8	10	14	12	8	7	
	3	14	8	10	13	12	8	6	
	4	15	6	10	13	8	8	5	
	5	17	4	10	12	6	7	5	
	6	18	4	10	11	4	7	3	
52	1	0	0	0	0	0	0	0	
************************************************************************

 RESOURCE AVAILABILITIES 
	R 1	R 2	N 1	N 2	N 3	N 4
	46	42	440	399	500	415

************************************************************************
